LAMMPS data file via 

10 atoms
6 atom types
5 bonds
3 bond types

-0.0001  3.954  xlo xhi
-0.0001  3.954  ylo yhi
-0.0001  3.954  zlo zhi


Masses

1  35.544	# K_core
2  84.460	# Nb_core
3  14.545	# O_core
4  3.5544	# K_shell
5  8.4460	# Nb_shell
6  1.4545	# O_shell

Atoms # full

1  1 1  1.2394 0	0	0	0 0 0
2  1 4 -0.4189 0	0	0	0 0 0
3  2 2 -2.9878 1.977	1.977	1.977	0 0 0
4  2 5  7.8265 1.977	1.977	1.977	0 0 0
5  3 3  1.1236 0	1.977	1.977	0 0 0
6  3 6 -3.0100 0	1.977	1.977	0 0 0
7  4 3  1.1236 1.977	0	1.977	0 0 0
8  4 6 -3.0100 1.977	0	1.977	0 0 0
9  5 3  1.1236 1.977	1.977	0	0 0 0
10 5 6 -3.0100 1.977	1.977	0	0 0 0

Bonds

1 1 1 2
2 2 3 4
3 3 5 6
4 3 7 8
5 3 9 10
